31      3       
41      10      10      
0       0       0       0       17      2       5       9       10      11      19      20      21      22      23      24      25      26      27      28      29      30      
6       1       1       1       4       3       13      14      18      
4       11      1       6       2       4       16      
3       12      3       5       1       6       
7       8       0       3       2       8       13      
4       11      1       6       1       7       
9       16      5       6       1       12      
4       30      4       2       1       15      
1       9       5       4       1       17      
4       32      8       6       1       14      
9       17      6       6       1       13      
3       8       2       5       1       31      
3       17      6       5       1       31      
2       24      7       2       1       31      
5       6       1       5       1       31      
1       25      5       4       1       31      
2       5       3       0       1       31      
4       9       0       4       1       31      
1       8       3       2       1       31      
8       24      2       3       1       31      
9       5       3       0       1       31      
5       8       6       2       1       31      
5       32      7       6       1       31      
2       8       2       0       1       31      
6       8       0       3       1       31      
2       9       4       5       1       31      
1       9       5       4       1       31      
2       3       1       3       1       31      
10      30      4       4       1       31      
1       9       0       4       1       31      
0       0       0       0       0       
